* #variable= 49 #constraint= 15
* Constraints for ucpp_get_assertion
min:  +400 x43 +400 x44 +400 x45 +400 x46 +400 x47 +400 x48 +400 x49 -1 x6 -1 x32;
* Callee-save Registers
 -1 x3 -1 x15 -1 x16 -1 x17 -1 x18 -1 x19 -1 x20 -1 x21 -1 x22 -1 x23 -1 x24 -1 x25 -1 x26 -1 x27 -1 x28 -1 x29 -1 x30 -1 x31 -1 x32 -1 x33 -1 x34 -1 x35 -1 x36 -1 x37 -1 x38 -1 x39 -1 x40 -1 x41 -1 x42 +29 x44 >= 0;
 -1 ~x3 -1 ~x15 -1 ~x16 -1 ~x17 -1 ~x18 -1 ~x19 -1 ~x20 -1 ~x21 -1 ~x22 -1 ~x23 -1 ~x24 -1 ~x25 -1 ~x26 -1 ~x27 -1 ~x28 -1 ~x29 -1 ~x30 -1 ~x31 -1 ~x32 -1 ~x33 -1 ~x34 -1 ~x35 -1 ~x36 -1 ~x37 -1 ~x38 -1 ~x39 -1 ~x40 -1 ~x41 -1 ~x42 +29 ~x44 >= -28;
 -1 x11 -1 x15 -1 x16 -1 x17 -1 x18 -1 x19 -1 x20 -1 x21 -1 x22 -1 x23 -1 x24 -1 x25 -1 x26 -1 x27 -1 x28 -1 x29 -1 x30 -1 x31 -1 x32 -1 x33 -1 x34 -1 x35 -1 x36 -1 x37 -1 x38 -1 x39 -1 x40 -1 x41 -1 x42 +29 x45 >= 0;
 -1 ~x11 -1 ~x15 -1 ~x16 -1 ~x17 -1 ~x18 -1 ~x19 -1 ~x20 -1 ~x21 -1 ~x22 -1 ~x23 -1 ~x24 -1 ~x25 -1 ~x26 -1 ~x27 -1 ~x28 -1 ~x29 -1 ~x30 -1 ~x31 -1 ~x32 -1 ~x33 -1 ~x34 -1 ~x35 -1 ~x36 -1 ~x37 -1 ~x38 -1 ~x39 -1 ~x40 -1 ~x41 -1 ~x42 +29 ~x45 >= -28;
 -1 x12 -1 x15 -1 x16 -1 x17 -1 x18 -1 x19 -1 x20 -1 x21 -1 x22 -1 x23 -1 x24 -1 x25 -1 x26 -1 x27 -1 x28 -1 x29 -1 x30 -1 x31 -1 x32 -1 x33 -1 x34 -1 x35 -1 x36 -1 x37 -1 x38 -1 x39 -1 x40 -1 x41 -1 x42 +29 x46 >= 0;
 -1 ~x12 -1 ~x15 -1 ~x16 -1 ~x17 -1 ~x18 -1 ~x19 -1 ~x20 -1 ~x21 -1 ~x22 -1 ~x23 -1 ~x24 -1 ~x25 -1 ~x26 -1 ~x27 -1 ~x28 -1 ~x29 -1 ~x30 -1 ~x31 -1 ~x32 -1 ~x33 -1 ~x34 -1 ~x35 -1 ~x36 -1 ~x37 -1 ~x38 -1 ~x39 -1 ~x40 -1 ~x41 -1 ~x42 +29 ~x46 >= -28;
 -1 x13 -1 x15 -1 x16 -1 x17 -1 x18 -1 x19 -1 x20 -1 x21 -1 x22 -1 x23 -1 x24 -1 x25 -1 x26 -1 x27 -1 x28 -1 x29 -1 x30 -1 x31 -1 x32 -1 x33 -1 x34 -1 x35 -1 x36 -1 x37 -1 x38 -1 x39 -1 x40 -1 x41 -1 x42 +29 x47 >= 0;
 -1 ~x13 -1 ~x15 -1 ~x16 -1 ~x17 -1 ~x18 -1 ~x19 -1 ~x20 -1 ~x21 -1 ~x22 -1 ~x23 -1 ~x24 -1 ~x25 -1 ~x26 -1 ~x27 -1 ~x28 -1 ~x29 -1 ~x30 -1 ~x31 -1 ~x32 -1 ~x33 -1 ~x34 -1 ~x35 -1 ~x36 -1 ~x37 -1 ~x38 -1 ~x39 -1 ~x40 -1 ~x41 -1 ~x42 +29 ~x47 >= -28;
 -1 x14 -1 x15 -1 x16 -1 x17 -1 x18 -1 x19 -1 x20 -1 x21 -1 x22 -1 x23 -1 x24 -1 x25 -1 x26 -1 x27 -1 x28 -1 x29 -1 x30 -1 x31 -1 x32 -1 x33 -1 x34 -1 x35 -1 x36 -1 x37 -1 x38 -1 x39 -1 x40 -1 x41 -1 x42 +29 x48 >= 0;
 -1 ~x14 -1 ~x15 -1 ~x16 -1 ~x17 -1 ~x18 -1 ~x19 -1 ~x20 -1 ~x21 -1 ~x22 -1 ~x23 -1 ~x24 -1 ~x25 -1 ~x26 -1 ~x27 -1 ~x28 -1 ~x29 -1 ~x30 -1 ~x31 -1 ~x32 -1 ~x33 -1 ~x34 -1 ~x35 -1 ~x36 -1 ~x37 -1 ~x38 -1 ~x39 -1 ~x40 -1 ~x41 -1 ~x42 +29 ~x48 >= -28;
 -1 x2 -1 x15 -1 x16 -1 x17 -1 x18 -1 x19 -1 x20 -1 x21 -1 x22 -1 x23 -1 x24 -1 x25 -1 x26 -1 x27 -1 x28 -1 x29 -1 x30 -1 x31 -1 x32 -1 x33 -1 x34 -1 x35 -1 x36 -1 x37 -1 x38 -1 x39 -1 x40 -1 x41 -1 x42 +29 x49 >= 0;
 -1 ~x2 -1 ~x15 -1 ~x16 -1 ~x17 -1 ~x18 -1 ~x19 -1 ~x20 -1 ~x21 -1 ~x22 -1 ~x23 -1 ~x24 -1 ~x25 -1 ~x26 -1 ~x27 -1 ~x28 -1 ~x29 -1 ~x30 -1 ~x31 -1 ~x32 -1 ~x33 -1 ~x34 -1 ~x35 -1 ~x36 -1 ~x37 -1 ~x38 -1 ~x39 -1 ~x40 -1 ~x41 -1 ~x42 +29 ~x49 >= -28;
* Move Conjunctions
* Valid Assignment
 +1 x1 +1 x2 +1 x3 +1 x4 +1 x5 +1 x6 +1 x7 +1 x8 +1 x9 +1 x10 +1 x11 +1 x12 +1 x13 +1 x14 +1 x43 = 1;
* Valid Usage
 -1 x43 +1 x15 +1 x16 +1 x17 +1 x18 +1 x19 +1 x20 +1 x21 +1 x22 +1 x23 +1 x24 +1 x25 +1 x26 +1 x27 = 0;
 -1 x43 +1 x28 +1 x29 +1 x30 +1 x31 +1 x32 +1 x33 +1 x34 +1 x35 +1 x36 +1 x37 +1 x38 +1 x39 +1 x40 +1 x41 +1 x42 = 0;
* Conflict Constraints
* Usage Constraints
